RT is False
Default write of storage_offers_DA.csv just to have a file (but constraint should be inactive)
Reading model...
...model read.
creating competitive generators file...
...competitive generators recorded.
Loading data...
.. day-ahead data with real-time VRE data read.
Compiling instance...
...instance created.
Creating Offer Mitigation (model will solve as dispatch if TRUE)...
...storage offer mitigation file created
Converting model to MPEC...
...converted
NOTE: initial MIP solve with only storage competitive to get feasible solution
Solving...

Welcome to IBM(R) ILOG(R) CPLEX(R) Interactive Optimizer 12.9.0.0
  with Simplex, Mixed Integer & Barrier Optimizers
5725-A06 5725-A29 5724-Y48 5724-Y49 5724-Y54 5724-Y55 5655-Y21
Copyright IBM Corp. 1988, 2019.  All Rights Reserved.

Type 'help' for a list of available commands.
Type 'help' followed by a command name for more
information on commands.

CPLEX> Logfile 'cplex.log' closed.
Logfile 'C:\Users\llavin\Desktop\test826\logs\tmpqhcomc9x.cplex.log' open.
CPLEX> New value for parallel optimization mode: -1
CPLEX> New value for mixed integer optimality gap tolerance: 0.01
CPLEX> New value for feasibility tolerance: 1e-09
CPLEX> New value for deterministic time limit in ticks: 100000
CPLEX> Problem 'C:\Users\llavin\Desktop\test826\logs\tmpy7mzv9h9.pyomo.lp' read.
Read time = 0.23 sec. (14.72 ticks)
CPLEX> Problem name         : C:\Users\llavin\Desktop\test826\logs\tmpy7mzv9h9.pyomo.lp
Objective sense      : Maximize
Variables            :   53805  [Nneg: 1,  Box: 22000,  Free: 4464,
                                 Binary: 27340]
Objective nonzeros   :    9029
Linear constraints   :  123205  [Less: 41346,  Greater: 59096,  Equal: 22763]
  Nonzeros           :  291753
  RHS nonzeros       :   67495

Variables            : Min LB: -5000.000        Max UB: 1000000.       
Objective nonzeros   : Min   : 0.07500000       Max   : 2500.000       
Linear constraints   :
  Nonzeros           : Min   : 0.07500000       Max   : 1000000.       
  RHS nonzeros       : Min   : 0.07500000       Max   : 1000000.       
CPLEX> CPXPARAM_Parallel                                -1
CPXPARAM_Simplex_Tolerances_Feasibility          1.0000000000000001e-09
CPXPARAM_DetTimeLimit                            100000
CPXPARAM_MIP_Tolerances_MIPGap                   0.01
Tried aggregator 3 times.
MIP Presolve eliminated 88696 rows and 19020 columns.
MIP Presolve added 3372 rows and 0 columns.
MIP Presolve modified 24866 coefficients.
Aggregator did 12976 substitutions.
Reduced MIP has 24905 rows, 21253 columns, and 71058 nonzeros.
Reduced MIP has 8401 binaries, 0 generals, 0 SOSs, and 0 indicators.
Presolve time = 0.30 sec. (168.00 ticks)
Probing fixed 370 vars, tightened 4101 bounds.
Probing time = 0.08 sec. (18.92 ticks)
Tried aggregator 2 times.
MIP Presolve eliminated 834 rows and 742 columns.
MIP Presolve modified 3035 coefficients.
Aggregator did 36 substitutions.
Reduced MIP has 24035 rows, 20475 columns, and 68540 nonzeros.
Reduced MIP has 8030 binaries, 0 generals, 0 SOSs, and 0 indicators.
Presolve time = 0.11 sec. (87.60 ticks)
Probing fixed 0 vars, tightened 256 bounds.
Probing time = 0.14 sec. (22.34 ticks)
Clique table members: 44609.
MIP emphasis: balance optimality and feasibility.
MIP search method: dynamic search.
Parallel mode: opportunistic, using up to 32 threads.
Root relaxation solution time = 0.42 sec. (625.13 ticks)

        Nodes                                         Cuts/
   Node  Left     Objective  IInf  Best Integer    Best Bound    ItCnt     Gap

      0     0     3980.7076   123                   3980.7076     5336         
*     0     0      integral     0     3980.7076     3980.7076     5336    0.00%
Elapsed time = 2.03 sec. (1592.25 ticks, tree = 0.01 MB, solutions = 1)

Root node processing (before b&c):
  Real time             =    2.05 sec. (1594.20 ticks)
Parallel b&c, 32 threads:
  Real time             =    0.00 sec. (0.00 ticks)
  Sync time (average)   =    0.00 sec.
  Wait time (average)   =    0.00 sec.
                          ------------
Total (root+branch&cut) =    2.05 sec. (1594.20 ticks)

Solution pool: 1 solution saved.

MIP - Integer optimal solution:  Objective =  3.9807076410e+03
Solution time =    2.06 sec.  Iterations = 5336  Nodes = 0
Deterministic time = 1594.35 ticks  (772.83 ticks/sec)

CPLEX> Incumbent solution written to file 'C:\Users\llavin\Desktop\test826\logs\tmpe54z26h8.cplex.sol'.
CPLEX> NOTE: no warmstart specified for MIP iteration, default behavior is true
NOTE: resolving with all competitive generators using storage-only solution to warmstart
Solving...

Welcome to IBM(R) ILOG(R) CPLEX(R) Interactive Optimizer 12.9.0.0
  with Simplex, Mixed Integer & Barrier Optimizers
5725-A06 5725-A29 5724-Y48 5724-Y49 5724-Y54 5724-Y55 5655-Y21
Copyright IBM Corp. 1988, 2019.  All Rights Reserved.

Type 'help' for a list of available commands.
Type 'help' followed by a command name for more
information on commands.

CPLEX> Logfile 'cplex.log' closed.
Logfile 'C:\Users\llavin\Desktop\test826\logs\tmpeftjbfdl.cplex.log' open.
CPLEX> New value for parallel optimization mode: -1
CPLEX> New value for mixed integer optimality gap tolerance: 0.01
CPLEX> New value for feasibility tolerance: 1e-09
CPLEX> New value for deterministic time limit in ticks: 100000
CPLEX> Problem 'C:\Users\llavin\Desktop\test826\logs\tmpwkocbm3w.pyomo.lp' read.
Read time = 0.23 sec. (14.74 ticks)
CPLEX> MIP start file 'C:\Users\llavin\Desktop\test826\logs\tmp7rlpi_cm.cplex.mst' read.
CPLEX> Problem name         : C:\Users\llavin\Desktop\test826\logs\tmpwkocbm3w.pyomo.lp
Objective sense      : Maximize
Variables            :   54525  [Nneg: 1,  Box: 22720,  Free: 4464,
                                 Binary: 27340]
Objective nonzeros   :    9725
Linear constraints   :  123205  [Less: 41346,  Greater: 59096,  Equal: 22763]
  Nonzeros           :  291753
  RHS nonzeros       :   67495

Variables            : Min LB: -5000.000        Max UB: 1000000.       
Objective nonzeros   : Min   : 0.07500000       Max   : 2500.000       
Linear constraints   :
  Nonzeros           : Min   : 0.07500000       Max   : 1000000.       
  RHS nonzeros       : Min   : 0.07500000       Max   : 1000000.       
CPLEX> CPXPARAM_Parallel                                -1
CPXPARAM_Simplex_Tolerances_Feasibility          1.0000000000000001e-09
CPXPARAM_DetTimeLimit                            100000
CPXPARAM_MIP_Tolerances_MIPGap                   0.01
1 of 1 MIP starts provided solutions.
MIP start 'm1' defined initial solution with objective 62125.9472.
Tried aggregator 3 times.
MIP Presolve eliminated 88696 rows and 19740 columns.
MIP Presolve added 3372 rows and 0 columns.
MIP Presolve modified 24866 coefficients.
Aggregator did 12976 substitutions.
Reduced MIP has 24905 rows, 21253 columns, and 71058 nonzeros.
Reduced MIP has 8401 binaries, 0 generals, 0 SOSs, and 0 indicators.
Presolve time = 0.28 sec. (168.35 ticks)
Probing fixed 370 vars, tightened 4101 bounds.
Probing time = 0.06 sec. (18.92 ticks)
Tried aggregator 2 times.
MIP Presolve eliminated 834 rows and 742 columns.
MIP Presolve modified 3035 coefficients.
Aggregator did 36 substitutions.
Reduced MIP has 24035 rows, 20475 columns, and 68540 nonzeros.
Reduced MIP has 8030 binaries, 0 generals, 0 SOSs, and 0 indicators.
Presolve time = 0.11 sec. (87.60 ticks)
Probing fixed 0 vars, tightened 256 bounds.
Probing time = 0.14 sec. (22.34 ticks)
Clique table members: 44609.
MIP emphasis: balance optimality and feasibility.
MIP search method: dynamic search.
Parallel mode: opportunistic, using up to 32 threads.
Root relaxation solution time = 0.47 sec. (682.00 ticks)

        Nodes                                         Cuts/
   Node  Left     Objective  IInf  Best Integer    Best Bound    ItCnt     Gap

*     0+    0                        62125.9472   7.33499e+07              --- 
      0     0    99412.0296   226    62125.9472    99412.0296     6028   60.02%
      0     0    98180.6464   111    62125.9472     Cuts: 403     6193   58.03%
      0     0    97716.5850   116    62125.9472     Cuts: 197     6267   57.29%
      0     0    97716.5850   105    62125.9472     Cuts: 222     6316   57.29%
      0     0    97716.5850   106    62125.9472      Cuts: 37     6320   57.29%
      0     0    97716.5850    59    62125.9472      Cuts: 10     6322   57.29%
      0     0    97716.5850    64    62125.9472      Cuts: 34     6337   57.29%
      0    17    infeasible          62125.9472       Cuts: 6     6537   56.84%
Elapsed time = 5.16 sec. (2685.26 ticks, tree = 0.02 MB, solutions = 1)
    492   162    63117.5805     6    62125.9472    81754.2129     9320   31.59%
   1272   370    62283.5424     2    62125.9472    80733.9938    11123   29.95%
   1842   768    62899.2807    29    62125.9472    77796.6418    14209   25.22%
   2753  1073    63059.7034     6    62125.9472    77628.2007    16242   24.95%
   3727  1400    63081.3754     8    62125.9472    77628.2007    19167   24.95%
   4715  2254    63108.2444     3    62125.9472    77628.2007    23440   24.95%
   5646  3134    63365.5108     8    62125.9472    70356.7478    27455   13.25%
   6605  3675    63376.1251    21    62125.9472    70081.2999    31834   12.81%
   7474  4017        cutoff          62125.9472    69924.2972    33453   12.55%
   8571  6097        cutoff          62125.9472    63919.4527    50029    2.89%
Elapsed time = 27.13 sec. (9109.89 ticks, tree = 59.49 MB, solutions = 1)
   8879   112    63872.3050    16    62125.9472    63901.6863    50977    2.86%
  10205   280    63837.7865    16    62125.9472    63901.6863    52691    2.86%
  12567   832    62917.5158    20    62125.9472    63901.6863    54297    2.86%
  16142  1672    62999.8340    37    62125.9472    63901.6863    60734    2.86%
  19385  3828    62532.1396    12    62125.9472    63895.4724    79241    2.85%
  20197  4769    62657.0129    12    62125.9472    63887.4415    88053    2.84%
  22134  8274    63727.8855    16    62125.9472    63886.3935   119726    2.83%
  25514  8192        cutoff          62125.9472    63886.3935   119038    2.83%
  29540 12727    63337.3317    16    62242.5423    63876.1283   160520    2.62%
  33447 10000    63310.5563    22    62242.5423    63872.0578   135735    2.62%
Elapsed time = 80.09 sec. (18653.08 ticks, tree = 77.21 MB, solutions = 2)
  37520 16304    63752.4512    22    62242.5423    63866.0911   195459    2.61%
  41732 18115    63437.2255    17    62242.5423    63861.6693   208306    2.60%
  46211 16565    62255.8801     6    62242.5423    63829.3548   196621    2.55%
  50654 18728    62469.6502    14    62242.5423    63819.0848   212991    2.53%
  55125 23140        cutoff          62242.5423    63798.7559   243989    2.50%
  59527 29595        cutoff          62242.5423    63795.5596   291743    2.50%
  64027 30318    63426.1293    18    62242.5423    63795.1474   298816    2.49%
  68349 30572    63104.3207    19    62242.5423    63795.1474   301518    2.49%
  72461 31577    63445.2449    15    62242.5423    63795.1474   312107    2.49%
  75830 33664    62274.8984    10    62242.5423    63795.1474   329559    2.49%
Elapsed time = 125.52 sec. (28192.70 ticks, tree = 268.60 MB, solutions = 2)
  78041 33261    63362.7255    17    62242.5423    63795.1474   325278    2.49%
  79248 34919    62842.3806    33    62242.5423    63795.1474   343760    2.49%
  79417 41440        cutoff          62242.5423    63752.4512   411379    2.43%
  80547    64    63526.2901    28    62242.5423    63604.8613   411727    2.19%
  82089   749        cutoff          62242.5423    63493.9835   423566    2.01%
  83052   754        cutoff          62242.5423    63493.9835   423703    2.01%

Cover cuts applied:  6
Implied bound cuts applied:  11
Flow cuts applied:  32
Mixed integer rounding cuts applied:  2
Gomory fractional cuts applied:  3

Root node processing (before b&c):
  Real time             =    3.81 sec. (2674.78 ticks)
Parallel b&c, 32 threads:
  Real time             =  145.59 sec. (33996.31 ticks)
  Sync time (average)   =    7.75 sec.
  Wait time (average)   =    0.34 sec.
                          ------------
Total (root+branch&cut) =  149.41 sec. (36671.09 ticks)

Solution pool: 2 solutions saved.

MIP - Integer optimal, tolerance (0.01/1e-06):  Objective =  6.2242542281e+04
Current MIP best bound =  6.2857044020e+04 (gap = 614.502, 0.99%)
Solution time =  149.42 sec.  Iterations = 439732  Nodes = 83283 (1178)
Deterministic time = 36671.25 ticks  (245.42 ticks/sec)

CPLEX> Incumbent solution written to file 'C:\Users\llavin\Desktop\test826\logs\tmpbw0axvhj.cplex.sol'.
CPLEX> Exporting results... 
